32	0

0	2	2	3
1	1	4
7	1	5
5	1	5
1	1	6
10	1	7
6	2	8	9
4	3	10	11	12
8	2	10	11
6	2	13	15
2	2	13	15
10	2	13	15
8	2	14	17
5	2	16	19
9	2	16	17
6	2	18	20
7	2	18	19
9	1	21
5	1	20
5	1	21
4	2	22	24
1	2	23	26
10	1	25
4	2	25	26
1	1	27
10	1	27
4	1	28
4	3	29	30	31
9	1	32
8	1	32
9	1	32
0	0
